[VALIDATOR STDOUT]
Type-checking pick-package
...action passes type checking.
Type-checking drop-package
...action passes type checking.
Type-checking move
...action passes type checking.
Checking plan: /home/jfan5/Safety-gen/runs/benchmark/optic/delivery_20260215_225923/delivery/optic_results/delivery_size41_packages1_seed41001.plan
Plan to validate:

Plan size: 283
1:
(move t1 c_33_11 c_33_12)
 
2:
(move t1 c_33_12 c_33_13)
 
3:
(move t1 c_33_13 c_33_14)
 
4:
(move t1 c_33_14 c_33_15)
 
5:
(move t1 c_33_15 c_33_16)
 
6:
(move t1 c_33_16 c_33_17)
 
7:
(move t1 c_33_17 c_33_18)
 
8:
(move t1 c_33_18 c_33_19)
 
9:
(move t1 c_33_19 c_33_20)
 
10:
(move t1 c_33_20 c_33_21)
 
11:
(move t1 c_33_21 c_33_22)
 
12:
(move t1 c_33_22 c_33_23)
 
13:
(move t1 c_33_23 c_33_24)
 
14:
(move t1 c_33_24 c_33_25)
 
15:
(move t1 c_33_25 c_33_26)
 
16:
(move t1 c_33_26 c_33_27)
 
17:
(move t1 c_33_27 c_33_28)
 
18:
(move t1 c_33_28 c_33_29)
 
19:
(move t1 c_33_29 c_33_30)
 
20:
(move t1 c_33_30 c_33_31)
 
21:
(move t1 c_33_31 c_33_32)
 
22:
(move t1 c_33_32 c_33_33)
 
23:
(move t1 c_33_33 c_33_34)
 
24:
(move t1 c_33_34 c_33_35)
 
25:
(move t1 c_33_35 c_33_36)
 
26:
(move t1 c_33_36 c_33_37)
 
27:
(move t1 c_33_37 c_34_37)
 
28:
(pick-package t1 p3 c_34_37)
 
29:
(move t1 c_34_37 c_33_37)
 
30:
(move t1 c_33_37 c_32_37)
 
31:
(move t1 c_32_37 c_31_37)
 
32:
(move t1 c_31_37 c_30_37)
 
33:
(move t1 c_30_37 c_29_37)
 
34:
(move t1 c_29_37 c_28_37)
 
35:
(move t1 c_28_37 c_27_37)
 
36:
(move t1 c_27_37 c_26_37)
 
37:
(move t1 c_26_37 c_25_37)
 
38:
(move t1 c_25_37 c_24_37)
 
39:
(move t1 c_24_37 c_23_37)
 
40:
(move t1 c_23_37 c_22_37)
 
41:
(drop-package t1 p3 c_22_37)
 
42:
(move t1 c_22_37 c_23_37)
 
43:
(pick-package t1 p2 c_23_37)
 
44:
(move t1 c_23_37 c_22_37)
 
45:
(move t1 c_22_37 c_21_37)
 
46:
(drop-package t1 p2 c_21_37)
 
47:
(move t1 c_21_37 c_22_37)
 
48:
(pick-package t1 p3 c_22_37)
 
49:
(move t1 c_22_37 c_21_37)
 
50:
(move t1 c_21_37 c_20_37)
 
51:
(drop-package t1 p3 c_20_37)
 
52:
(move t1 c_20_37 c_21_37)
 
53:
(pick-package t1 p2 c_21_37)
 
54:
(move t1 c_21_37 c_20_37)
 
55:
(move t1 c_20_37 c_19_37)
 
56:
(drop-package t1 p2 c_19_37)
 
57:
(move t1 c_19_37 c_20_37)
 
58:
(pick-package t1 p3 c_20_37)
 
59:
(move t1 c_20_37 c_19_37)
 
60:
(move t1 c_19_37 c_18_37)
 
61:
(drop-package t1 p3 c_18_37)
 
62:
(move t1 c_18_37 c_19_37)
 
63:
(pick-package t1 p2 c_19_37)
 
64:
(move t1 c_19_37 c_18_37)
 
65:
(drop-package t1 p2 c_18_37)
 
66:
(move t1 c_18_37 c_18_38)
 
67:
(pick-package t1 p1 c_18_38)
 
68:
(move t1 c_18_38 c_18_37)
 
69:
(move t1 c_18_37 c_17_37)
 
70:
(move t1 c_17_37 c_16_37)
 
71:
(move t1 c_16_37 c_15_37)
 
72:
(move t1 c_15_37 c_14_37)
 
73:
(move t1 c_14_37 c_14_36)
 
74:
(move t1 c_14_36 c_14_35)
 
75:
(move t1 c_14_35 c_14_34)
 
76:
(move t1 c_14_34 c_14_33)
 
77:
(move t1 c_14_33 c_14_32)
 
78:
(move t1 c_14_32 c_14_31)
 
79:
(move t1 c_14_31 c_14_30)
 
80:
(move t1 c_14_30 c_14_29)
 
81:
(move t1 c_14_29 c_14_28)
 
82:
(move t1 c_14_28 c_14_27)
 
83:
(move t1 c_14_27 c_14_26)
 
84:
(move t1 c_14_26 c_14_25)
 
85:
(move t1 c_14_25 c_14_24)
 
86:
(move t1 c_14_24 c_14_23)
 
87:
(move t1 c_14_23 c_14_22)
 
88:
(move t1 c_14_22 c_14_21)
 
89:
(move t1 c_14_21 c_14_20)
 
90:
(move t1 c_14_20 c_14_19)
 
91:
(move t1 c_14_19 c_14_18)
 
92:
(move t1 c_14_18 c_14_17)
 
93:
(move t1 c_14_17 c_14_16)
 
94:
(move t1 c_14_16 c_14_15)
 
95:
(move t1 c_14_15 c_14_14)
 
96:
(move t1 c_14_14 c_14_13)
 
97:
(drop-package t1 p1 c_14_13)
 
98:
(move t1 c_14_13 c_13_13)
 
99:
(move t1 c_13_13 c_12_13)
 
100:
(move t1 c_12_13 c_11_13)
 
101:
(move t1 c_11_13 c_10_13)
 
102:
(move t1 c_10_13 c_9_13)
 
103:
(move t1 c_9_13 c_8_13)
 
104:
(move t1 c_8_13 c_7_13)
 
105:
(move t1 c_7_13 c_6_13)
 
106:
(move t1 c_6_13 c_5_13)
 
107:
(move t1 c_5_13 c_4_13)
 
108:
(move t1 c_4_13 c_3_13)
 
109:
(pick-package t1 p4 c_3_13)
 
110:
(move t1 c_3_13 c_4_13)
 
111:
(move t1 c_4_13 c_5_13)
 
112:
(move t1 c_5_13 c_6_13)
 
113:
(move t1 c_6_13 c_7_13)
 
114:
(move t1 c_7_13 c_8_13)
 
115:
(move t1 c_8_13 c_9_13)
 
116:
(move t1 c_9_13 c_10_13)
 
117:
(move t1 c_10_13 c_11_13)
 
118:
(move t1 c_11_13 c_12_13)
 
119:
(move t1 c_12_13 c_13_13)
 
120:
(move t1 c_13_13 c_14_13)
 
121:
(drop-package t1 p4 c_14_13)
 
122:
(move t1 c_14_13 c_14_14)
 
123:
(move t1 c_14_14 c_14_15)
 
124:
(move t1 c_14_15 c_14_16)
 
125:
(move t1 c_14_16 c_14_17)
 
126:
(move t1 c_14_17 c_14_18)
 
127:
(move t1 c_14_18 c_14_19)
 
128:
(move t1 c_14_19 c_14_20)
 
129:
(move t1 c_14_20 c_14_21)
 
130:
(move t1 c_14_21 c_14_22)
 
131:
(move t1 c_14_22 c_14_23)
 
132:
(move t1 c_14_23 c_14_24)
 
133:
(move t1 c_14_24 c_14_25)
 
134:
(move t1 c_14_25 c_14_26)
 
135:
(move t1 c_14_26 c_14_27)
 
136:
(move t1 c_14_27 c_14_28)
 
137:
(move t1 c_14_28 c_14_29)
 
138:
(move t1 c_14_29 c_14_30)
 
139:
(move t1 c_14_30 c_14_31)
 
140:
(move t1 c_14_31 c_14_32)
 
141:
(move t1 c_14_32 c_14_33)
 
142:
(move t1 c_14_33 c_14_34)
 
143:
(move t1 c_14_34 c_14_35)
 
144:
(move t1 c_14_35 c_14_36)
 
145:
(move t1 c_14_36 c_14_37)
 
146:
(move t1 c_14_37 c_15_37)
 
147:
(move t1 c_15_37 c_16_37)
 
148:
(move t1 c_16_37 c_17_37)
 
149:
(move t1 c_17_37 c_18_37)
 
150:
(pick-package t1 p3 c_18_37)
 
151:
(move t1 c_18_37 c_17_37)
 
152:
(drop-package t1 p3 c_17_37)
 
153:
(move t1 c_17_37 c_18_37)
 
154:
(pick-package t1 p2 c_18_37)
 
155:
(move t1 c_18_37 c_17_37)
 
156:
(move t1 c_17_37 c_16_37)
 
157:
(drop-package t1 p2 c_16_37)
 
158:
(move t1 c_16_37 c_17_37)
 
159:
(pick-package t1 p3 c_17_37)
 
160:
(move t1 c_17_37 c_16_37)
 
161:
(move t1 c_16_37 c_15_37)
 
162:
(drop-package t1 p3 c_15_37)
 
163:
(move t1 c_15_37 c_16_37)
 
164:
(pick-package t1 p2 c_16_37)
 
165:
(move t1 c_16_37 c_15_37)
 
166:
(move t1 c_15_37 c_14_37)
 
167:
(drop-package t1 p2 c_14_37)
 
168:
(move t1 c_14_37 c_15_37)
 
169:
(pick-package t1 p3 c_15_37)
 
170:
(move t1 c_15_37 c_14_37)
 
171:
(move t1 c_14_37 c_14_36)
 
172:
(drop-package t1 p3 c_14_36)
 
173:
(move t1 c_14_36 c_14_37)
 
174:
(pick-package t1 p2 c_14_37)
 
175:
(move t1 c_14_37 c_14_36)
 
176:
(move t1 c_14_36 c_14_35)
 
177:
(drop-package t1 p2 c_14_35)
 
178:
(move t1 c_14_35 c_14_36)
 
179:
(pick-package t1 p3 c_14_36)
 
180:
(move t1 c_14_36 c_14_35)
 
181:
(move t1 c_14_35 c_14_34)
 
182:
(drop-package t1 p3 c_14_34)
 
183:
(move t1 c_14_34 c_14_35)
 
184:
(pick-package t1 p2 c_14_35)
 
185:
(move t1 c_14_35 c_14_34)
 
186:
(move t1 c_14_34 c_14_33)
 
187:
(drop-package t1 p2 c_14_33)
 
188:
(move t1 c_14_33 c_14_34)
 
189:
(pick-package t1 p3 c_14_34)
 
190:
(move t1 c_14_34 c_14_33)
 
191:
(move t1 c_14_33 c_14_32)
 
192:
(drop-package t1 p3 c_14_32)
 
193:
(move t1 c_14_32 c_14_33)
 
194:
(pick-package t1 p2 c_14_33)
 
195:
(move t1 c_14_33 c_14_32)
 
196:
(move t1 c_14_32 c_14_31)
 
197:
(drop-package t1 p2 c_14_31)
 
198:
(move t1 c_14_31 c_14_32)
 
199:
(pick-package t1 p3 c_14_32)
 
200:
(move t1 c_14_32 c_14_31)
 
201:
(move t1 c_14_31 c_14_30)
 
202:
(drop-package t1 p3 c_14_30)
 
203:
(move t1 c_14_30 c_14_31)
 
204:
(pick-package t1 p2 c_14_31)
 
205:
(move t1 c_14_31 c_14_30)
 
206:
(move t1 c_14_30 c_14_29)
 
207:
(drop-package t1 p2 c_14_29)
 
208:
(move t1 c_14_29 c_14_30)
 
209:
(pick-package t1 p3 c_14_30)
 
210:
(move t1 c_14_30 c_14_29)
 
211:
(move t1 c_14_29 c_14_28)
 
212:
(drop-package t1 p3 c_14_28)
 
213:
(move t1 c_14_28 c_14_29)
 
214:
(pick-package t1 p2 c_14_29)
 
215:
(move t1 c_14_29 c_14_28)
 
216:
(move t1 c_14_28 c_14_27)
 
217:
(drop-package t1 p2 c_14_27)
 
218:
(move t1 c_14_27 c_14_28)
 
219:
(pick-package t1 p3 c_14_28)
 
220:
(move t1 c_14_28 c_14_27)
 
221:
(move t1 c_14_27 c_14_26)
 
222:
(drop-package t1 p3 c_14_26)
 
223:
(move t1 c_14_26 c_14_27)
 
224:
(pick-package t1 p2 c_14_27)
 
225:
(move t1 c_14_27 c_14_26)
 
226:
(move t1 c_14_26 c_14_25)
 
227:
(drop-package t1 p2 c_14_25)
 
228:
(move t1 c_14_25 c_14_26)
 
229:
(pick-package t1 p3 c_14_26)
 
230:
(move t1 c_14_26 c_14_25)
 
231:
(move t1 c_14_25 c_14_24)
 
232:
(drop-package t1 p3 c_14_24)
 
233:
(move t1 c_14_24 c_14_25)
 
234:
(pick-package t1 p2 c_14_25)
 
235:
(move t1 c_14_25 c_14_24)
 
236:
(move t1 c_14_24 c_14_23)
 
237:
(drop-package t1 p2 c_14_23)
 
238:
(move t1 c_14_23 c_14_24)
 
239:
(pick-package t1 p3 c_14_24)
 
240:
(move t1 c_14_24 c_14_23)
 
241:
(move t1 c_14_23 c_14_22)
 
242:
(drop-package t1 p3 c_14_22)
 
243:
(move t1 c_14_22 c_14_23)
 
244:
(pick-package t1 p2 c_14_23)
 
245:
(move t1 c_14_23 c_14_22)
 
246:
(move t1 c_14_22 c_14_21)
 
247:
(drop-package t1 p2 c_14_21)
 
248:
(move t1 c_14_21 c_14_22)
 
249:
(pick-package t1 p3 c_14_22)
 
250:
(move t1 c_14_22 c_14_21)
 
251:
(move t1 c_14_21 c_14_20)
 
252:
(drop-package t1 p3 c_14_20)
 
253:
(move t1 c_14_20 c_14_21)
 
254:
(pick-package t1 p2 c_14_21)
 
255:
(move t1 c_14_21 c_14_20)
 
256:
(move t1 c_14_20 c_14_19)
 
257:
(drop-package t1 p2 c_14_19)
 
258:
(move t1 c_14_19 c_14_20)
 
259:
(pick-package t1 p3 c_14_20)
 
260:
(move t1 c_14_20 c_14_19)
 
261:
(move t1 c_14_19 c_14_18)
 
262:
(drop-package t1 p3 c_14_18)
 
263:
(move t1 c_14_18 c_14_19)
 
264:
(pick-package t1 p2 c_14_19)
 
265:
(move t1 c_14_19 c_14_18)
 
266:
(move t1 c_14_18 c_14_17)
 
267:
(move t1 c_14_17 c_14_16)
 
268:
(move t1 c_14_16 c_14_15)
 
269:
(move t1 c_14_15 c_14_14)
 
270:
(move t1 c_14_14 c_14_13)
 
271:
(drop-package t1 p2 c_14_13)
 
272:
(move t1 c_14_13 c_14_14)
 
273:
(move t1 c_14_14 c_14_15)
 
274:
(move t1 c_14_15 c_14_16)
 
275:
(move t1 c_14_16 c_14_17)
 
276:
(move t1 c_14_17 c_14_18)
 
277:
(pick-package t1 p3 c_14_18)
 
278:
(move t1 c_14_18 c_14_17)
 
279:
(move t1 c_14_17 c_14_16)
 
280:
(move t1 c_14_16 c_14_15)
 
281:
(move t1 c_14_15 c_14_14)
 
282:
(move t1 c_14_14 c_14_13)
 
283:
(drop-package t1 p3 c_14_13)
 

Plan Validation details
-----------------------

Checking next happening (time 1)
Deleting (at t1 c_33_11)
Adding (at t1 c_33_12)

Checking next happening (time 2)
Deleting (at t1 c_33_12)
Adding (at t1 c_33_13)

Checking next happening (time 3)
Deleting (at t1 c_33_13)
Adding (at t1 c_33_14)

Checking next happening (time 4)
Deleting (at t1 c_33_14)
Adding (at t1 c_33_15)

Checking next happening (time 5)
Deleting (at t1 c_33_15)
Adding (at t1 c_33_16)

Checking next happening (time 6)
Deleting (at t1 c_33_16)
Adding (at t1 c_33_17)

Checking next happening (time 7)
Deleting (at t1 c_33_17)
Adding (at t1 c_33_18)

Checking next happening (time 8)
Deleting (at t1 c_33_18)
Adding (at t1 c_33_19)

Checking next happening (time 9)
Deleting (at t1 c_33_19)
Adding (at t1 c_33_20)

Checking next happening (time 10)
Deleting (at t1 c_33_20)
Adding (at t1 c_33_21)

Checking next happening (time 11)
Deleting (at t1 c_33_21)
Adding (at t1 c_33_22)

Checking next happening (time 12)
Deleting (at t1 c_33_22)
Adding (at t1 c_33_23)

Checking next happening (time 13)
Deleting (at t1 c_33_23)
Adding (at t1 c_33_24)

Checking next happening (time 14)
Deleting (at t1 c_33_24)
Adding (at t1 c_33_25)

Checking next happening (time 15)
Deleting (at t1 c_33_25)
Adding (at t1 c_33_26)

Checking next happening (time 16)
Deleting (at t1 c_33_26)
Adding (at t1 c_33_27)

Checking next happening (time 17)
Deleting (at t1 c_33_27)
Adding (at t1 c_33_28)

Checking next happening (time 18)
Deleting (at t1 c_33_28)
Adding (at t1 c_33_29)

Checking next happening (time 19)
Deleting (at t1 c_33_29)
Adding (at t1 c_33_30)

Checking next happening (time 20)
Deleting (at t1 c_33_30)
Adding (at t1 c_33_31)

Checking next happening (time 21)
Deleting (at t1 c_33_31)
Adding (at t1 c_33_32)

Checking next happening (time 22)
Deleting (at t1 c_33_32)
Adding (at t1 c_33_33)

Checking next happening (time 23)
Deleting (at t1 c_33_33)
Adding (at t1 c_33_34)

Checking next happening (time 24)
Deleting (at t1 c_33_34)
Adding (at t1 c_33_35)

Checking next happening (time 25)
Deleting (at t1 c_33_35)
Adding (at t1 c_33_36)

Checking next happening (time 26)
Deleting (at t1 c_33_36)
Adding (at t1 c_33_37)

Checking next happening (time 27)
Deleting (at t1 c_33_37)
Adding (at t1 c_34_37)

Checking next happening (time 28)
Deleting (at p3 c_34_37)
Deleting (empty t1)
Adding (carrying t1 p3)

Checking next happening (time 29)
Deleting (at t1 c_34_37)
Adding (at t1 c_33_37)

Checking next happening (time 30)
Deleting (at t1 c_33_37)
Adding (at t1 c_32_37)

Checking next happening (time 31)
Deleting (at t1 c_32_37)
Adding (at t1 c_31_37)

Checking next happening (time 32)
Deleting (at t1 c_31_37)
Adding (at t1 c_30_37)

Checking next happening (time 33)
Deleting (at t1 c_30_37)
Adding (at t1 c_29_37)

Checking next happening (time 34)
Deleting (at t1 c_29_37)
Adding (at t1 c_28_37)

Checking next happening (time 35)
Deleting (at t1 c_28_37)
Adding (at t1 c_27_37)

Checking next happening (time 36)
Deleting (at t1 c_27_37)
Adding (at t1 c_26_37)

Checking next happening (time 37)
Deleting (at t1 c_26_37)
Adding (at t1 c_25_37)

Checking next happening (time 38)
Deleting (at t1 c_25_37)
Adding (at t1 c_24_37)

Checking next happening (time 39)
Deleting (at t1 c_24_37)
Adding (at t1 c_23_37)

Checking next happening (time 40)
Deleting (at t1 c_23_37)
Adding (at t1 c_22_37)

Checking next happening (time 41)
Deleting (carrying t1 p3)
Adding (empty t1)
Adding (at p3 c_22_37)

Checking next happening (time 42)
Deleting (at t1 c_22_37)
Adding (at t1 c_23_37)

Checking next happening (time 43)
Deleting (at p2 c_23_37)
Deleting (empty t1)
Adding (carrying t1 p2)

Checking next happening (time 44)
Deleting (at t1 c_23_37)
Adding (at t1 c_22_37)

Checking next happening (time 45)
Deleting (at t1 c_22_37)
Adding (at t1 c_21_37)

Checking next happening (time 46)
Deleting (carrying t1 p2)
Adding (empty t1)
Adding (at p2 c_21_37)

Checking next happening (time 47)
Deleting (at t1 c_21_37)
Adding (at t1 c_22_37)

Checking next happening (time 48)
Deleting (at p3 c_22_37)
Deleting (empty t1)
Adding (carrying t1 p3)

Checking next happening (time 49)
Deleting (at t1 c_22_37)
Adding (at t1 c_21_37)

Checking next happening (time 50)
Deleting (at t1 c_21_37)
Adding (at t1 c_20_37)

Checking next happening (time 51)
Deleting (carrying t1 p3)
Adding (empty t1)
Adding (at p3 c_20_37)

Checking next happening (time 52)
Deleting (at t1 c_20_37)
Adding (at t1 c_21_37)

Checking next happening (time 53)
Deleting (at p2 c_21_37)
Deleting (empty t1)
Adding (carrying t1 p2)

Checking next happening (time 54)
Deleting (at t1 c_21_37)
Adding (at t1 c_20_37)

Checking next happening (time 55)
Deleting (at t1 c_20_37)
Adding (at t1 c_19_37)

Checking next happening (time 56)
Deleting (carrying t1 p2)
Adding (empty t1)
Adding (at p2 c_19_37)

Checking next happening (time 57)
Deleting (at t1 c_19_37)
Adding (at t1 c_20_37)

Checking next happening (time 58)
Deleting (at p3 c_20_37)
Deleting (empty t1)
Adding (carrying t1 p3)

Checking next happening (time 59)
Deleting (at t1 c_20_37)
Adding (at t1 c_19_37)

Checking next happening (time 60)
Deleting (at t1 c_19_37)
Adding (at t1 c_18_37)

Checking next happening (time 61)
Deleting (carrying t1 p3)
Adding (empty t1)
Adding (at p3 c_18_37)

Checking next happening (time 62)
Deleting (at t1 c_18_37)
Adding (at t1 c_19_37)

Checking next happening (time 63)
Deleting (at p2 c_19_37)
Deleting (empty t1)
Adding (carrying t1 p2)

Checking next happening (time 64)
Deleting (at t1 c_19_37)
Adding (at t1 c_18_37)

Checking next happening (time 65)
Deleting (carrying t1 p2)
Adding (empty t1)
Adding (at p2 c_18_37)

Checking next happening (time 66)
Deleting (at t1 c_18_37)
Adding (at t1 c_18_38)

Checking next happening (time 67)
Deleting (at p1 c_18_38)
Deleting (empty t1)
Adding (carrying t1 p1)

Checking next happening (time 68)
Deleting (at t1 c_18_38)
Adding (at t1 c_18_37)

Checking next happening (time 69)
Deleting (at t1 c_18_37)
Adding (at t1 c_17_37)

Checking next happening (time 70)
Deleting (at t1 c_17_37)
Adding (at t1 c_16_37)

Checking next happening (time 71)
Deleting (at t1 c_16_37)
Adding (at t1 c_15_37)

Checking next happening (time 72)
Deleting (at t1 c_15_37)
Adding (at t1 c_14_37)

Checking next happening (time 73)
Deleting (at t1 c_14_37)
Adding (at t1 c_14_36)

Checking next happening (time 74)
Deleting (at t1 c_14_36)
Adding (at t1 c_14_35)

Checking next happening (time 75)
Deleting (at t1 c_14_35)
Adding (at t1 c_14_34)

Checking next happening (time 76)
Deleting (at t1 c_14_34)
Adding (at t1 c_14_33)

Checking next happening (time 77)
Deleting (at t1 c_14_33)
Adding (at t1 c_14_32)

Checking next happening (time 78)
Deleting (at t1 c_14_32)
Adding (at t1 c_14_31)

Checking next happening (time 79)
Deleting (at t1 c_14_31)
Adding (at t1 c_14_30)

Checking next happening (time 80)
Deleting (at t1 c_14_30)
Adding (at t1 c_14_29)

Checking next happening (time 81)
Deleting (at t1 c_14_29)
Adding (at t1 c_14_28)

Checking next happening (time 82)
Deleting (at t1 c_14_28)
Adding (at t1 c_14_27)

Checking next happening (time 83)
Deleting (at t1 c_14_27)
Adding (at t1 c_14_26)

Checking next happening (time 84)
Deleting (at t1 c_14_26)
Adding (at t1 c_14_25)

Checking next happening (time 85)
Deleting (at t1 c_14_25)
Adding (at t1 c_14_24)

Checking next happening (time 86)
Deleting (at t1 c_14_24)
Adding (at t1 c_14_23)

Checking next happening (time 87)
Deleting (at t1 c_14_23)
Adding (at t1 c_14_22)

Checking next happening (time 88)
Deleting (at t1 c_14_22)
Adding (at t1 c_14_21)

Checking next happening (time 89)
Deleting (at t1 c_14_21)
Adding (at t1 c_14_20)

Checking next happening (time 90)
Deleting (at t1 c_14_20)
Adding (at t1 c_14_19)

Checking next happening (time 91)
Deleting (at t1 c_14_19)
Adding (at t1 c_14_18)

Checking next happening (time 92)
Deleting (at t1 c_14_18)
Adding (at t1 c_14_17)

Checking next happening (time 93)
Deleting (at t1 c_14_17)
Adding (at t1 c_14_16)

Checking next happening (time 94)
Deleting (at t1 c_14_16)
Adding (at t1 c_14_15)

Checking next happening (time 95)
Deleting (at t1 c_14_15)
Adding (at t1 c_14_14)

Checking next happening (time 96)
Deleting (at t1 c_14_14)
Adding (at t1 c_14_13)

Checking next happening (time 97)
Deleting (carrying t1 p1)
Adding (empty t1)
Adding (at p1 c_14_13)

Checking next happening (time 98)
Deleting (at t1 c_14_13)
Adding (at t1 c_13_13)

Checking next happening (time 99)
Deleting (at t1 c_13_13)
Adding (at t1 c_12_13)

Checking next happening (time 100)
Deleting (at t1 c_12_13)
Adding (at t1 c_11_13)

Checking next happening (time 101)
Deleting (at t1 c_11_13)
Adding (at t1 c_10_13)

Checking next happening (time 102)
Deleting (at t1 c_10_13)
Adding (at t1 c_9_13)

Checking next happening (time 103)
Deleting (at t1 c_9_13)
Adding (at t1 c_8_13)

Checking next happening (time 104)
Deleting (at t1 c_8_13)
Adding (at t1 c_7_13)

Checking next happening (time 105)
Deleting (at t1 c_7_13)
Adding (at t1 c_6_13)

Checking next happening (time 106)
Deleting (at t1 c_6_13)
Adding (at t1 c_5_13)

Checking next happening (time 107)
Deleting (at t1 c_5_13)
Adding (at t1 c_4_13)

Checking next happening (time 108)
Deleting (at t1 c_4_13)
Adding (at t1 c_3_13)

Checking next happening (time 109)
Deleting (at p4 c_3_13)
Deleting (empty t1)
Adding (carrying t1 p4)

Checking next happening (time 110)
Deleting (at t1 c_3_13)
Adding (at t1 c_4_13)

Checking next happening (time 111)
Deleting (at t1 c_4_13)
Adding (at t1 c_5_13)

Checking next happening (time 112)
Deleting (at t1 c_5_13)
Adding (at t1 c_6_13)

Checking next happening (time 113)
Deleting (at t1 c_6_13)
Adding (at t1 c_7_13)

Checking next happening (time 114)
Deleting (at t1 c_7_13)
Adding (at t1 c_8_13)

Checking next happening (time 115)
Deleting (at t1 c_8_13)
Adding (at t1 c_9_13)

Checking next happening (time 116)
Deleting (at t1 c_9_13)
Adding (at t1 c_10_13)

Checking next happening (time 117)
Deleting (at t1 c_10_13)
Adding (at t1 c_11_13)

Checking next happening (time 118)
Deleting (at t1 c_11_13)
Adding (at t1 c_12_13)

Checking next happening (time 119)
Deleting (at t1 c_12_13)
Adding (at t1 c_13_13)

Checking next happening (time 120)
Deleting (at t1 c_13_13)
Adding (at t1 c_14_13)

Checking next happening (time 121)
Deleting (carrying t1 p4)
Adding (empty t1)
Adding (at p4 c_14_13)

Checking next happening (time 122)
Deleting (at t1 c_14_13)
Adding (at t1 c_14_14)

Checking next happening (time 123)
Deleting (at t1 c_14_14)
Adding (at t1 c_14_15)

Checking next happening (time 124)
Deleting (at t1 c_14_15)
Adding (at t1 c_14_16)

Checking next happening (time 125)
Deleting (at t1 c_14_16)
Adding (at t1 c_14_17)

Checking next happening (time 126)
Deleting (at t1 c_14_17)
Adding (at t1 c_14_18)

Checking next happening (time 127)
Deleting (at t1 c_14_18)
Adding (at t1 c_14_19)

Checking next happening (time 128)
Deleting (at t1 c_14_19)
Adding (at t1 c_14_20)

Checking next happening (time 129)
Deleting (at t1 c_14_20)
Adding (at t1 c_14_21)

Checking next happening (time 130)
Deleting (at t1 c_14_21)
Adding (at t1 c_14_22)

Checking next happening (time 131)
Deleting (at t1 c_14_22)
Adding (at t1 c_14_23)

Checking next happening (time 132)
Deleting (at t1 c_14_23)
Adding (at t1 c_14_24)

Checking next happening (time 133)
Deleting (at t1 c_14_24)
Adding (at t1 c_14_25)

Checking next happening (time 134)
Deleting (at t1 c_14_25)
Adding (at t1 c_14_26)

Checking next happening (time 135)
Deleting (at t1 c_14_26)
Adding (at t1 c_14_27)

Checking next happening (time 136)
Deleting (at t1 c_14_27)
Adding (at t1 c_14_28)

Checking next happening (time 137)
Deleting (at t1 c_14_28)
Adding (at t1 c_14_29)

Checking next happening (time 138)
Deleting (at t1 c_14_29)
Adding (at t1 c_14_30)

Checking next happening (time 139)
Deleting (at t1 c_14_30)
Adding (at t1 c_14_31)

Checking next happening (time 140)
Deleting (at t1 c_14_31)
Adding (at t1 c_14_32)

Checking next happening (time 141)
Deleting (at t1 c_14_32)
Adding (at t1 c_14_33)

Checking next happening (time 142)
Deleting (at t1 c_14_33)
Adding (at t1 c_14_34)

Checking next happening (time 143)
Deleting (at t1 c_14_34)
Adding (at t1 c_14_35)

Checking next happening (time 144)
Deleting (at t1 c_14_35)
Adding (at t1 c_14_36)

Checking next happening (time 145)
Deleting (at t1 c_14_36)
Adding (at t1 c_14_37)

Checking next happening (time 146)
Deleting (at t1 c_14_37)
Adding (at t1 c_15_37)

Checking next happening (time 147)
Deleting (at t1 c_15_37)
Adding (at t1 c_16_37)

Checking next happening (time 148)
Deleting (at t1 c_16_37)
Adding (at t1 c_17_37)

Checking next happening (time 149)
Deleting (at t1 c_17_37)
Adding (at t1 c_18_37)

Checking next happening (time 150)
Deleting (at p3 c_18_37)
Deleting (empty t1)
Adding (carrying t1 p3)

Checking next happening (time 151)
Deleting (at t1 c_18_37)
Adding (at t1 c_17_37)

Checking next happening (time 152)
Deleting (carrying t1 p3)
Adding (empty t1)
Adding (at p3 c_17_37)

Checking next happening (time 153)
Deleting (at t1 c_17_37)
Adding (at t1 c_18_37)

Checking next happening (time 154)
Deleting (at p2 c_18_37)
Deleting (empty t1)
Adding (carrying t1 p2)

Checking next happening (time 155)
Deleting (at t1 c_18_37)
Adding (at t1 c_17_37)

Checking next happening (time 156)
Deleting (at t1 c_17_37)
Adding (at t1 c_16_37)

Checking next happening (time 157)
Deleting (carrying t1 p2)
Adding (empty t1)
Adding (at p2 c_16_37)

Checking next happening (time 158)
Deleting (at t1 c_16_37)
Adding (at t1 c_17_37)

Checking next happening (time 159)
Deleting (at p3 c_17_37)
Deleting (empty t1)
Adding (carrying t1 p3)

Checking next happening (time 160)
Deleting (at t1 c_17_37)
Adding (at t1 c_16_37)

Checking next happening (time 161)
Deleting (at t1 c_16_37)
Adding (at t1 c_15_37)

Checking next happening (time 162)
Deleting (carrying t1 p3)
Adding (empty t1)
Adding (at p3 c_15_37)

Checking next happening (time 163)
Deleting (at t1 c_15_37)
Adding (at t1 c_16_37)

Checking next happening (time 164)
Deleting (at p2 c_16_37)
Deleting (empty t1)
Adding (carrying t1 p2)

Checking next happening (time 165)
Deleting (at t1 c_16_37)
Adding (at t1 c_15_37)

Checking next happening (time 166)
Deleting (at t1 c_15_37)
Adding (at t1 c_14_37)

Checking next happening (time 167)
Deleting (carrying t1 p2)
Adding (empty t1)
Adding (at p2 c_14_37)

Checking next happening (time 168)
Deleting (at t1 c_14_37)
Adding (at t1 c_15_37)

Checking next happening (time 169)
Deleting (at p3 c_15_37)
Deleting (empty t1)
Adding (carrying t1 p3)

Checking next happening (time 170)
Deleting (at t1 c_15_37)
Adding (at t1 c_14_37)

Checking next happening (time 171)
Deleting (at t1 c_14_37)
Adding (at t1 c_14_36)

Checking next happening (time 172)
Deleting (carrying t1 p3)
Adding (empty t1)
Adding (at p3 c_14_36)

Checking next happening (time 173)
Deleting (at t1 c_14_36)
Adding (at t1 c_14_37)

Checking next happening (time 174)
Deleting (at p2 c_14_37)
Deleting (empty t1)
Adding (carrying t1 p2)

Checking next happening (time 175)
Deleting (at t1 c_14_37)
Adding (at t1 c_14_36)

Checking next happening (time 176)
Deleting (at t1 c_14_36)
Adding (at t1 c_14_35)

Checking next happening (time 177)
Deleting (carrying t1 p2)
Adding (empty t1)
Adding (at p2 c_14_35)

Checking next happening (time 178)
Deleting (at t1 c_14_35)
Adding (at t1 c_14_36)

Checking next happening (time 179)
Deleting (at p3 c_14_36)
Deleting (empty t1)
Adding (carrying t1 p3)

Checking next happening (time 180)
Deleting (at t1 c_14_36)
Adding (at t1 c_14_35)

Checking next happening (time 181)
Deleting (at t1 c_14_35)
Adding (at t1 c_14_34)

Checking next happening (time 182)
Deleting (carrying t1 p3)
Adding (empty t1)
Adding (at p3 c_14_34)

Checking next happening (time 183)
Deleting (at t1 c_14_34)
Adding (at t1 c_14_35)

Checking next happening (time 184)
Deleting (at p2 c_14_35)
Deleting (empty t1)
Adding (carrying t1 p2)

Checking next happening (time 185)
Deleting (at t1 c_14_35)
Adding (at t1 c_14_34)

Checking next happening (time 186)
Deleting (at t1 c_14_34)
Adding (at t1 c_14_33)

Checking next happening (time 187)
Deleting (carrying t1 p2)
Adding (empty t1)
Adding (at p2 c_14_33)

Checking next happening (time 188)
Deleting (at t1 c_14_33)
Adding (at t1 c_14_34)

Checking next happening (time 189)
Deleting (at p3 c_14_34)
Deleting (empty t1)
Adding (carrying t1 p3)

Checking next happening (time 190)
Deleting (at t1 c_14_34)
Adding (at t1 c_14_33)

Checking next happening (time 191)
Deleting (at t1 c_14_33)
Adding (at t1 c_14_32)

Checking next happening (time 192)
Deleting (carrying t1 p3)
Adding (empty t1)
Adding (at p3 c_14_32)

Checking next happening (time 193)
Deleting (at t1 c_14_32)
Adding (at t1 c_14_33)

Checking next happening (time 194)
Deleting (at p2 c_14_33)
Deleting (empty t1)
Adding (carrying t1 p2)

Checking next happening (time 195)
Deleting (at t1 c_14_33)
Adding (at t1 c_14_32)

Checking next happening (time 196)
Deleting (at t1 c_14_32)
Adding (at t1 c_14_31)

Checking next happening (time 197)
Deleting (carrying t1 p2)
Adding (empty t1)
Adding (at p2 c_14_31)

Checking next happening (time 198)
Deleting (at t1 c_14_31)
Adding (at t1 c_14_32)

Checking next happening (time 199)
Deleting (at p3 c_14_32)
Deleting (empty t1)
Adding (carrying t1 p3)

Checking next happening (time 200)
Deleting (at t1 c_14_32)
Adding (at t1 c_14_31)

Checking next happening (time 201)
Deleting (at t1 c_14_31)
Adding (at t1 c_14_30)

Checking next happening (time 202)
Deleting (carrying t1 p3)
Adding (empty t1)
Adding (at p3 c_14_30)

Checking next happening (time 203)
Deleting (at t1 c_14_30)
Adding (at t1 c_14_31)

Checking next happening (time 204)
Deleting (at p2 c_14_31)
Deleting (empty t1)
Adding (carrying t1 p2)

Checking next happening (time 205)
Deleting (at t1 c_14_31)
Adding (at t1 c_14_30)

Checking next happening (time 206)
Deleting (at t1 c_14_30)
Adding (at t1 c_14_29)

Checking next happening (time 207)
Deleting (carrying t1 p2)
Adding (empty t1)
Adding (at p2 c_14_29)

Checking next happening (time 208)
Deleting (at t1 c_14_29)
Adding (at t1 c_14_30)

Checking next happening (time 209)
Deleting (at p3 c_14_30)
Deleting (empty t1)
Adding (carrying t1 p3)

Checking next happening (time 210)
Deleting (at t1 c_14_30)
Adding (at t1 c_14_29)

Checking next happening (time 211)
Deleting (at t1 c_14_29)
Adding (at t1 c_14_28)

Checking next happening (time 212)
Deleting (carrying t1 p3)
Adding (empty t1)
Adding (at p3 c_14_28)

Checking next happening (time 213)
Deleting (at t1 c_14_28)
Adding (at t1 c_14_29)

Checking next happening (time 214)
Deleting (at p2 c_14_29)
Deleting (empty t1)
Adding (carrying t1 p2)

Checking next happening (time 215)
Deleting (at t1 c_14_29)
Adding (at t1 c_14_28)

Checking next happening (time 216)
Deleting (at t1 c_14_28)
Adding (at t1 c_14_27)

Checking next happening (time 217)
Deleting (carrying t1 p2)
Adding (empty t1)
Adding (at p2 c_14_27)

Checking next happening (time 218)
Deleting (at t1 c_14_27)
Adding (at t1 c_14_28)

Checking next happening (time 219)
Deleting (at p3 c_14_28)
Deleting (empty t1)
Adding (carrying t1 p3)

Checking next happening (time 220)
Deleting (at t1 c_14_28)
Adding (at t1 c_14_27)

Checking next happening (time 221)
Deleting (at t1 c_14_27)
Adding (at t1 c_14_26)

Checking next happening (time 222)
Deleting (carrying t1 p3)
Adding (empty t1)
Adding (at p3 c_14_26)

Checking next happening (time 223)
Deleting (at t1 c_14_26)
Adding (at t1 c_14_27)

Checking next happening (time 224)
Deleting (at p2 c_14_27)
Deleting (empty t1)
Adding (carrying t1 p2)

Checking next happening (time 225)
Deleting (at t1 c_14_27)
Adding (at t1 c_14_26)

Checking next happening (time 226)
Deleting (at t1 c_14_26)
Adding (at t1 c_14_25)

Checking next happening (time 227)
Deleting (carrying t1 p2)
Adding (empty t1)
Adding (at p2 c_14_25)

Checking next happening (time 228)
Deleting (at t1 c_14_25)
Adding (at t1 c_14_26)

Checking next happening (time 229)
Deleting (at p3 c_14_26)
Deleting (empty t1)
Adding (carrying t1 p3)

Checking next happening (time 230)
Deleting (at t1 c_14_26)
Adding (at t1 c_14_25)

Checking next happening (time 231)
Deleting (at t1 c_14_25)
Adding (at t1 c_14_24)

Checking next happening (time 232)
Deleting (carrying t1 p3)
Adding (empty t1)
Adding (at p3 c_14_24)

Checking next happening (time 233)
Deleting (at t1 c_14_24)
Adding (at t1 c_14_25)

Checking next happening (time 234)
Deleting (at p2 c_14_25)
Deleting (empty t1)
Adding (carrying t1 p2)

Checking next happening (time 235)
Deleting (at t1 c_14_25)
Adding (at t1 c_14_24)

Checking next happening (time 236)
Deleting (at t1 c_14_24)
Adding (at t1 c_14_23)

Checking next happening (time 237)
Deleting (carrying t1 p2)
Adding (empty t1)
Adding (at p2 c_14_23)

Checking next happening (time 238)
Deleting (at t1 c_14_23)
Adding (at t1 c_14_24)

Checking next happening (time 239)
Deleting (at p3 c_14_24)
Deleting (empty t1)
Adding (carrying t1 p3)

Checking next happening (time 240)
Deleting (at t1 c_14_24)
Adding (at t1 c_14_23)

Checking next happening (time 241)
Deleting (at t1 c_14_23)
Adding (at t1 c_14_22)

Checking next happening (time 242)
Deleting (carrying t1 p3)
Adding (empty t1)
Adding (at p3 c_14_22)

Checking next happening (time 243)
Deleting (at t1 c_14_22)
Adding (at t1 c_14_23)

Checking next happening (time 244)
Deleting (at p2 c_14_23)
Deleting (empty t1)
Adding (carrying t1 p2)

Checking next happening (time 245)
Deleting (at t1 c_14_23)
Adding (at t1 c_14_22)

Checking next happening (time 246)
Deleting (at t1 c_14_22)
Adding (at t1 c_14_21)

Checking next happening (time 247)
Deleting (carrying t1 p2)
Adding (empty t1)
Adding (at p2 c_14_21)

Checking next happening (time 248)
Deleting (at t1 c_14_21)
Adding (at t1 c_14_22)

Checking next happening (time 249)
Deleting (at p3 c_14_22)
Deleting (empty t1)
Adding (carrying t1 p3)

Checking next happening (time 250)
Deleting (at t1 c_14_22)
Adding (at t1 c_14_21)

Checking next happening (time 251)
Deleting (at t1 c_14_21)
Adding (at t1 c_14_20)

Checking next happening (time 252)
Deleting (carrying t1 p3)
Adding (empty t1)
Adding (at p3 c_14_20)

Checking next happening (time 253)
Deleting (at t1 c_14_20)
Adding (at t1 c_14_21)

Checking next happening (time 254)
Deleting (at p2 c_14_21)
Deleting (empty t1)
Adding (carrying t1 p2)

Checking next happening (time 255)
Deleting (at t1 c_14_21)
Adding (at t1 c_14_20)

Checking next happening (time 256)
Deleting (at t1 c_14_20)
Adding (at t1 c_14_19)

Checking next happening (time 257)
Deleting (carrying t1 p2)
Adding (empty t1)
Adding (at p2 c_14_19)

Checking next happening (time 258)
Deleting (at t1 c_14_19)
Adding (at t1 c_14_20)

Checking next happening (time 259)
Deleting (at p3 c_14_20)
Deleting (empty t1)
Adding (carrying t1 p3)

Checking next happening (time 260)
Deleting (at t1 c_14_20)
Adding (at t1 c_14_19)

Checking next happening (time 261)
Deleting (at t1 c_14_19)
Adding (at t1 c_14_18)

Checking next happening (time 262)
Deleting (carrying t1 p3)
Adding (empty t1)
Adding (at p3 c_14_18)

Checking next happening (time 263)
Deleting (at t1 c_14_18)
Adding (at t1 c_14_19)

Checking next happening (time 264)
Deleting (at p2 c_14_19)
Deleting (empty t1)
Adding (carrying t1 p2)

Checking next happening (time 265)
Deleting (at t1 c_14_19)
Adding (at t1 c_14_18)

Checking next happening (time 266)
Deleting (at t1 c_14_18)
Adding (at t1 c_14_17)

Checking next happening (time 267)
Deleting (at t1 c_14_17)
Adding (at t1 c_14_16)

Checking next happening (time 268)
Deleting (at t1 c_14_16)
Adding (at t1 c_14_15)

Checking next happening (time 269)
Deleting (at t1 c_14_15)
Adding (at t1 c_14_14)

Checking next happening (time 270)
Deleting (at t1 c_14_14)
Adding (at t1 c_14_13)

Checking next happening (time 271)
Deleting (carrying t1 p2)
Adding (empty t1)
Adding (at p2 c_14_13)

Checking next happening (time 272)
Deleting (at t1 c_14_13)
Adding (at t1 c_14_14)

Checking next happening (time 273)
Deleting (at t1 c_14_14)
Adding (at t1 c_14_15)

Checking next happening (time 274)
Deleting (at t1 c_14_15)
Adding (at t1 c_14_16)

Checking next happening (time 275)
Deleting (at t1 c_14_16)
Adding (at t1 c_14_17)

Checking next happening (time 276)
Deleting (at t1 c_14_17)
Adding (at t1 c_14_18)

Checking next happening (time 277)
Deleting (at p3 c_14_18)
Deleting (empty t1)
Adding (carrying t1 p3)

Checking next happening (time 278)
Deleting (at t1 c_14_18)
Adding (at t1 c_14_17)

Checking next happening (time 279)
Deleting (at t1 c_14_17)
Adding (at t1 c_14_16)

Checking next happening (time 280)
Deleting (at t1 c_14_16)
Adding (at t1 c_14_15)

Checking next happening (time 281)
Deleting (at t1 c_14_15)
Adding (at t1 c_14_14)

Checking next happening (time 282)
Deleting (at t1 c_14_14)
Adding (at t1 c_14_13)

Checking next happening (time 283)
Deleting (carrying t1 p3)
Adding (empty t1)
Adding (at p3 c_14_13)
Plan executed successfully - checking goal
Plan valid
Final value: 283 

Successful plans:
Value: 283
 /home/jfan5/Safety-gen/runs/benchmark/optic/delivery_20260215_225923/delivery/optic_results/delivery_size41_packages1_seed41001.plan 283
